Route #1: 20 15 35 2 36 39 24 14 26
Route #2: 27 31 43 33 3
Route #3: 5 17 25 28 12 1 40
Route #4: 7 21 29 18 16
Route #5: 4 8 22 38 42 30
Route #6: 32 11 23 10
Route #7: 19 9 37 41 13 34 6
cost 988.0806884765625